structure               step5_input_hmr.psf
coordinates             step5_input.pdb

set temp                303.15;
outputName              step7_bench_resident_hmr_4fs_piston_8pe; # base name for output from this run

set inputname           step6.6_equilibration;
binCoordinates          $inputname.coor;    # coordinates from last run (binary)
# binVelocities OMITTED -- HMR changes masses, old velocities are inconsistent with new masses
temperature             $temp;               # regenerate velocities consistent with HMR masses
extendedSystem          $inputname.xsc;     # cell dimensions from last run (binary)

dcdfreq                 5000;
dcdUnitCell             yes;
xstFreq                 5000;
outputEnergies          5000;
outputTiming             5000;
restartfreq             5000;

# Force-Field Parameters
paraTypeCharmm          on;
parameters              toppar/par_all36m_prot.prm
parameters              toppar/par_all36_na.prm
parameters              toppar/par_all36_carb.prm
parameters              toppar/par_all36_lipid.prm
parameters              toppar/par_all36_cgenff.prm
parameters              toppar/par_interface.prm
parameters              toppar/toppar_all36_moreions.str
parameters              toppar/toppar_all36_nano_lig.str
parameters              toppar/toppar_all36_nano_lig_patch.str
parameters              toppar/toppar_all36_synthetic_polymer.str
parameters              toppar/toppar_all36_synthetic_polymer_patch.str
parameters              toppar/toppar_all36_polymer_solvent.str
parameters              toppar/toppar_water_ions.str
parameters              toppar/toppar_dum_noble_gases.str
parameters              toppar/toppar_ions_won.str
parameters              toppar/cam.str
parameters              toppar/toppar_all36_prot_arg0.str
parameters              toppar/toppar_all36_prot_c36m_d_aminoacids.str
parameters              toppar/toppar_all36_prot_fluoro_alkanes.str
parameters              toppar/toppar_all36_prot_heme.str
parameters              toppar/toppar_all36_prot_na_combined.str
parameters              toppar/toppar_all36_prot_retinol.str
parameters              toppar/toppar_all36_prot_model.str
parameters              toppar/toppar_all36_prot_modify_res.str
parameters              toppar/toppar_all36_na_nad_ppi.str
parameters              toppar/toppar_all36_na_rna_modified.str
parameters              toppar/toppar_all36_lipid_sphingo.str
parameters              toppar/toppar_all36_lipid_archaeal.str
parameters              toppar/toppar_all36_lipid_bacterial.str
parameters              toppar/toppar_all36_lipid_cardiolipin.str
parameters              toppar/toppar_all36_lipid_cholesterol.str
parameters              toppar/toppar_all36_lipid_dag.str
parameters              toppar/toppar_all36_lipid_inositol.str
parameters              toppar/toppar_all36_lipid_lnp.str
parameters              toppar/toppar_all36_lipid_lps.str
parameters              toppar/toppar_all36_lipid_mycobacterial.str
parameters              toppar/toppar_all36_lipid_miscellaneous.str
parameters              toppar/toppar_all36_lipid_model.str
parameters              toppar/toppar_all36_lipid_prot.str
parameters              toppar/toppar_all36_lipid_tag.str
parameters              toppar/toppar_all36_lipid_yeast.str
parameters              toppar/toppar_all36_lipid_hmmm.str
parameters              toppar/toppar_all36_lipid_detergent.str
parameters              toppar/toppar_all36_lipid_ether.str
parameters              toppar/toppar_all36_lipid_oxidized.str
parameters              toppar/toppar_all36_carb_glycolipid.str
parameters              toppar/toppar_all36_carb_glycopeptide.str
parameters              toppar/toppar_all36_carb_imlab.str
parameters              toppar/toppar_all36_label_spin.str
parameters              toppar/toppar_all36_label_fluorophore.str
source                  step5_input.str

# Nonbonded Parameters
exclude                 scaled1-4
1-4scaling              1.0
switching               on
vdwForceSwitching       on;

cutoff                  12.0;
switchdist              10.0;
pairlistdist            16.0;
margin                  6.0;                # 4fs timestep needs patch slack -- was missing entirely before
stepspercycle           20;
pairlistsPerCycle       2;

# Integrator Parameters
timestep                4.0;                # fs/step
CUDASOAintegrate        on
rigidBonds              all;
nonbondedFreq           1;
fullElectFrequency      1;

wrapWater               on;
wrapAll                 on;
if { $boxtype == "hexa" } {
wrapNearest             on;
} else {
wrapNearest             off;
}

# PME
PME                     yes;
PMEInterpOrder          6;
PMEGridSpacing          1.0;

# Constant Pressure Control (variable volume)
useGroupPressure        yes;
useFlexibleCell         yes;
useConstantRatio        yes;

langevinPiston          on;
langevinPistonTarget    1.01325;
langevinPistonPeriod    100.0;             # doubled for 4fs timestep
langevinPistonDecay     50.0;              # doubled for 4fs timestep
langevinPistonTemp      $temp;

# Constant Temperature Control
langevin                on;
langevinDamping         1.0;
langevinTemp            $temp;
langevinHydrogen        off;
# run -- SHORT BENCHMARK: 25,000 steps (~50 ps at 2fs), not full 1ns production
numsteps                25000;
run                     25000;
